c generated by sgen
p cnf 57 124
-2 -3 -4 0
-1 -3 -4 0
-1 -2 -4 0
-1 -2 -3 0
-6 -7 -8 0
-5 -7 -8 0
-5 -6 -8 0
-5 -6 -7 0
-10 -11 -12 0
-9 -11 -12 0
-9 -10 -12 0
-9 -10 -11 0
-14 -15 -16 0
-13 -15 -16 0
-13 -14 -16 0
-13 -14 -15 0
-18 -19 -20 0
-17 -19 -20 0
-17 -18 -20 0
-17 -18 -19 0
-22 -23 -24 0
-21 -23 -24 0
-21 -22 -24 0
-21 -22 -23 0
-26 -27 -28 0
-25 -27 -28 0
-25 -26 -28 0
-25 -26 -27 0
-30 -31 -32 0
-29 -31 -32 0
-29 -30 -32 0
-29 -30 -31 0
-34 -35 -36 0
-33 -35 -36 0
-33 -34 -36 0
-33 -34 -35 0
-38 -39 -40 0
-37 -39 -40 0
-37 -38 -40 0
-37 -38 -39 0
-42 -43 -44 0
-41 -43 -44 0
-41 -42 -44 0
-41 -42 -43 0
-46 -47 -48 0
-45 -47 -48 0
-45 -46 -48 0
-45 -46 -47 0
-50 -51 -52 0
-49 -51 -52 0
-49 -50 -52 0
-49 -50 -51 0
-53 -54 -55 0
-53 -54 -56 0
-53 -54 -57 0
-53 -55 -56 0
-53 -55 -57 0
-53 -56 -57 0
-54 -55 -56 0
-54 -55 -57 0
-54 -56 -57 0
-55 -56 -57 0
49 42 26 0
21 42 26 0
21 49 26 0
21 49 42 0
47 53 2 0
44 53 2 0
44 47 2 0
44 47 53 0
31 43 38 0
18 43 38 0
18 31 38 0
18 31 43 0
14 41 34 0
57 41 34 0
57 14 34 0
57 14 41 0
55 5 19 0
25 5 19 0
25 55 19 0
25 55 5 0
51 29 54 0
11 29 54 0
11 51 54 0
11 51 29 0
6 15 30 0
4 15 30 0
4 6 30 0
4 6 15 0
48 32 22 0
36 32 22 0
36 48 22 0
36 48 32 0
33 27 1 0
40 27 1 0
40 33 1 0
40 33 27 0
7 46 12 0
39 46 12 0
39 7 12 0
39 7 46 0
23 3 9 0
17 3 9 0
17 23 9 0
17 23 3 0
28 13 45 0
10 13 45 0
10 28 45 0
10 28 13 0
20 8 35 0
50 8 35 0
50 20 35 0
50 20 8 0
52 24 37 0
52 24 56 0
52 24 16 0
52 37 56 0
52 37 16 0
52 56 16 0
24 37 56 0
24 37 16 0
24 56 16 0
37 56 16 0
